NAME 
ROWS
 N  OBJ
 L  R0      
 L  R1      
 L  R2      
 E  R3      
 E  R4      
 E  R5      
 E  R6      
 E  R7      
COLUMNS
    MARKER    'MARKER'                 'INTORG'
    I0(4)     OBJ       -72
    I0(4)     R0        194
    I0(4)     R1        -127
    I0(4)     R2        122
    I0(4)     R7        1
    I1(5)     OBJ       -6
    I1(5)     R0        -137
    I1(5)     R1        53
    I1(5)     R2        -89
    I1(5)     R5        12
    I1(5)     R7        1
    I2(7)     OBJ       184
    I2(7)     R0        -16
    I2(7)     R1        70
    I2(7)     R2        95
    I2(7)     R3        9
    I2(7)     R4        18
    I2(7)     R5        15
    I2(7)     R7        1
    MARKER    'MARKER'                 'INTEND'
    C3(6)     OBJ       -1
    C3(6)     R0        2
    C3(6)     R1        -7
    C3(6)     R2        5
    C3(6)     R3        8
    C3(6)     R4        6
    C3(6)     R6        4
    C4(3)     OBJ       9
    C4(3)     R0        -10
    C4(3)     R1        1
    C4(3)     R2        -5
    C5(1)     R3        1
    C6(1)     R4        1
    C7(1)     R5        1
    C8(1)     R6        1
    C9(1)     R7        1
RHS
    RHS1      R0        213.5
    RHS1      R1        -195.25
    RHS1      R2        170.75
    RHS1      R3        78
    RHS1      R4        97
    RHS1      R5        78
    RHS1      R6        58
    RHS1      R7        1
BOUNDS
 UP BND1      I0(4)     1
 UP BND1      I1(5)     1
 UP BND1      I2(7)     1
ENDATA
